
Gurobi 12.0.2 (win64) logging started Mon Nov  3 17:56:28 2025

Set parameter LogFile to value "resultados DATA_1_n10m10b2d1\instancia_6_log.txt"
Set parameter TimeLimit to value 1800
Gurobi Optimizer version 12.0.2 build v12.0.2rc0 (win64 - Windows 10.0 (19045.2))

CPU model: Intel(R) Core(TM) i5-6300U CPU @ 2.40GHz, instruction set [SSE2|AVX|AVX2]
Thread count: 2 physical cores, 4 logical processors, using up to 4 threads

Non-default parameters:
TimeLimit  1800

Optimize a model with 1010 rows, 6282 columns and 94850 nonzeros
Model fingerprint: 0xeb296c16
Variable types: 0 continuous, 6282 integer (6282 binary)
Coefficient statistics:
  Matrix range     [1e+00, 1e+00]
  Objective range  [1e-03, 5e-02]
  Bounds range     [1e+00, 1e+00]
  RHS range        [1e+00, 1e+03]
Found heuristic solution: objective 1.0000000
Presolve time: 0.26s
Presolved: 1010 rows, 6282 columns, 94850 nonzeros
Variable types: 0 continuous, 6282 integer (6282 binary)

Root relaxation: cutoff, 3889 iterations, 0.33 seconds (0.16 work units)

    Nodes    |    Current Node    |     Objective Bounds      |     Work
 Expl Unexpl |  Obj  Depth IntInf | Incumbent    BestBd   Gap | It/Node Time

     0     0     cutoff    0         1.00000    1.00000  0.00%     -    0s

Explored 1 nodes (3889 simplex iterations) in 0.64 seconds (0.33 work units)
Thread count was 4 (of 4 available processors)

Solution count 1: 1 

Optimal solution found (tolerance 1.00e-04)
Best objective 1.000000000000e+00, best bound 1.000000000000e+00, gap 0.0000%
